
Gurobi 10.0.1 (win64) logging started Tue Sep 19 06:54:46 2023

Set parameter LogFile to value "./results//log/FTQL_deadline.log"
Gurobi Optimizer version 10.0.1 build v10.0.1rc0 (win64)

CPU model: AMD Ryzen 7 3700X 8-Core Processor, instruction set [SSE2|AVX|AVX2]
Thread count: 8 physical cores, 16 logical processors, using up to 16 threads

Optimize a model with 204 rows, 630 columns and 683 nonzeros
Model fingerprint: 0x4ba971fa
Model has 1 quadratic constraint
Variable types: 24 continuous, 606 integer (605 binary)
Coefficient statistics:
  Matrix range     [1e+00, 4e+04]
  QMatrix range    [1e+00, 1e+00]
  QLMatrix range   [1e+00, 4e+03]
  Objective range  [1e+00, 1e+00]
  Bounds range     [1e+00, 1e+00]
  RHS range        [1e+00, 1e+05]
Presolve removed 89 rows and 558 columns
Presolve time: 0.00s
Presolved: 115 rows, 72 columns, 328 nonzeros
Variable types: 24 continuous, 48 integer (47 binary)
Found heuristic solution: objective 89271.000000
Found heuristic solution: objective 83351.000000
Found heuristic solution: objective 80631.000000

Root relaxation: objective 2.699900e+04, 36 iterations, 0.00 seconds (0.00 work units)

    Nodes    |    Current Node    |     Objective Bounds      |     Work
 Expl Unexpl |  Obj  Depth IntInf | Incumbent    BestBd   Gap | It/Node Time

     0     0 26999.0000    0   21 80631.0000 26999.0000  66.5%     -    0s
H    0     0                    80604.000000 26999.0000  66.5%     -    0s
H    0     0                    73504.000000 26999.0000  63.3%     -    0s
H    0     0                    66105.000000 26999.0000  59.2%     -    0s
H    0     0                    61364.000000 26999.0000  56.0%     -    0s
H    0     0                    61362.000000 26999.0000  56.0%     -    0s
H    0     0                    53440.000000 27578.0000  48.4%     -    0s
H    0     0                    52943.000000 37840.0000  28.5%     -    0s
H    0     0                    51064.000000 37840.0000  25.9%     -    0s
     0     0 37840.0000    0   17 51064.0000 37840.0000  25.9%     -    0s
H    0     0                    51063.000000 37840.0000  25.9%     -    0s
H    0     0                    48455.000000 37840.0000  21.9%     -    0s
H    0     0                    47849.000000 37840.0000  20.9%     -    0s
     0     0 37840.0000    0   15 47849.0000 37840.0000  20.9%     -    0s
H    0     0                    47848.000000 37840.0000  20.9%     -    0s
H    0     0                    47572.000000 37840.0000  20.5%     -    0s
     0     0 37919.0000    0   17 47572.0000 37919.0000  20.3%     -    0s
     0     0 37919.0000    0   18 47572.0000 37919.0000  20.3%     -    0s
     0     0 37923.0596    0   20 47572.0000 37923.0596  20.3%     -    0s
     0     0 37924.0000    0   17 47572.0000 37924.0000  20.3%     -    0s
     0     0 37924.0000    0   15 47572.0000 37924.0000  20.3%     -    0s
     0     0 37924.0000    0   17 47572.0000 37924.0000  20.3%     -    0s
     0     0 37924.0000    0   15 47572.0000 37924.0000  20.3%     -    0s
     0     2 38013.2898    0   10 47572.0000 38013.2898  20.1%     -    0s

Cutting planes:
  Gomory: 2
  Implied bound: 18
  MIR: 39
  Inf proof: 1
  RLT: 21
  Relax-and-lift: 11

Explored 1063 nodes (7024 simplex iterations) in 0.10 seconds (0.06 work units)
Thread count was 16 (of 16 available processors)

Solution count 10: 47572 47572 47848 ... 61362

Optimal solution found (tolerance 1.00e-04)
Best objective 4.757200000000e+04, best bound 4.757200000000e+04, gap 0.0000%
Warning: constraint name "precedence between 1,1 to 0,0 if x_[0,0,1,1,1]=1, i.e. 0,0 before 1,1" has a space
Warning: constraint name "precedence between 1,1 to 0,0 if x_[0,0,1,1,1]=1, i.e. 0,0 before 1,1" has a space
Warning: default constraint names used to write mps file
